Route #1: 115 108 109 107 114 106 118 46 48 35 101 53 47 75 1
Route #2: 31 58 30 52 98 37 99 36 100 55 103 54 104 56 105 57 97 50 102 51 26 59
Route #3: 28 7 29 93 10 94 8 44 5 42 4 41 6 40 3 95 38 96 2 45 9 43 12 90 16 89 15 88 14 87 13 92 11 27
Route #4: 39 32 134 76 110 125 122 127 128 126 120 124 116 131 117
Route #5: 111 132 123 121 129 113 81 112 77
Route #6: 24 19 119 130 65 74 68 72 22 25 86 83 85 91 84 20 82 21 23
Route #7: 73 69 80 33 34 49 62 61 60 64 63 79 70 78 67 133 18 71 17 66
Cost 2810
